certificates/rado_a20_c12_N201.cnf
c Rad2 upper bound instance: x1 + 20*x2 - x3 = 12, interval [1,201]
p cnf 201 2060
1 9 0
-1 -9 0
1 2 29 0
-1 -2 -29 0
1 3 49 0
-1 -3 -49 0
1 4 69 0
-1 -4 -69 0
1 5 89 0
-1 -5 -89 0
1 6 109 0
-1 -6 -109 0
1 7 129 0
-1 -7 -129 0
1 8 149 0
-1 -8 -149 0
1 9 169 0
-1 -9 -169 0
1 10 189 0
-1 -10 -189 0
1 2 10 0
-1 -2 -10 0
2 30 0
-2 -30 0
2 3 50 0
-2 -3 -50 0
2 4 70 0
-2 -4 -70 0
2 5 90 0
-2 -5 -90 0
2 6 110 0
-2 -6 -110 0
2 7 130 0
-2 -7 -130 0
2 8 150 0
-2 -8 -150 0
2 9 170 0
-2 -9 -170 0
2 10 190 0
-2 -10 -190 0
1 3 11 0
-1 -3 -11 0
2 3 31 0
-2 -3 -31 0
3 51 0
-3 -51 0
3 4 71 0
-3 -4 -71 0
3 5 91 0
-3 -5 -91 0
3 6 111 0
-3 -6 -111 0
3 7 131 0
-3 -7 -131 0
3 8 151 0
-3 -8 -151 0
3 9 171 0
-3 -9 -171 0
3 10 191 0
-3 -10 -191 0
1 4 12 0
-1 -4 -12 0
2 4 32 0
-2 -4 -32 0
3 4 52 0
-3 -4 -52 0
4 72 0
-4 -72 0
4 5 92 0
-4 -5 -92 0
4 6 112 0
-4 -6 -112 0
4 7 132 0
-4 -7 -132 0
4 8 152 0
-4 -8 -152 0
4 9 172 0
-4 -9 -172 0
4 10 192 0
-4 -10 -192 0
1 5 13 0
-1 -5 -13 0
2 5 33 0
-2 -5 -33 0
3 5 53 0
-3 -5 -53 0
4 5 73 0
-4 -5 -73 0
5 93 0
-5 -93 0
5 6 113 0
-5 -6 -113 0
5 7 133 0
-5 -7 -133 0
5 8 153 0
-5 -8 -153 0
5 9 173 0
-5 -9 -173 0
5 10 193 0
-5 -10 -193 0
1 6 14 0
-1 -6 -14 0
2 6 34 0
-2 -6 -34 0
3 6 54 0
-3 -6 -54 0
4 6 74 0
-4 -6 -74 0
5 6 94 0
-5 -6 -94 0
6 114 0
-6 -114 0
6 7 134 0
-6 -7 -134 0
6 8 154 0
-6 -8 -154 0
6 9 174 0
-6 -9 -174 0
6 10 194 0
-6 -10 -194 0
1 7 15 0
-1 -7 -15 0
2 7 35 0
-2 -7 -35 0
3 7 55 0
-3 -7 -55 0
4 7 75 0
-4 -7 -75 0
5 7 95 0
-5 -7 -95 0
6 7 115 0
-6 -7 -115 0
7 135 0
-7 -135 0
7 8 155 0
-7 -8 -155 0
7 9 175 0
-7 -9 -175 0
7 10 195 0
-7 -10 -195 0
1 8 16 0
-1 -8 -16 0
2 8 36 0
-2 -8 -36 0
3 8 56 0
-3 -8 -56 0
4 8 76 0
-4 -8 -76 0
5 8 96 0
-5 -8 -96 0
6 8 116 0
-6 -8 -116 0
7 8 136 0
-7 -8 -136 0
8 156 0
-8 -156 0
8 9 176 0
-8 -9 -176 0
8 10 196 0
-8 -10 -196 0
1 9 17 0
-1 -9 -17 0
2 9 37 0
-2 -9 -37 0
3 9 57 0
-3 -9 -57 0
4 9 77 0
-4 -9 -77 0
5 9 97 0
-5 -9 -97 0
6 9 117 0
-6 -9 -117 0
7 9 137 0
-7 -9 -137 0
8 9 157 0
-8 -9 -157 0
9 177 0
-9 -177 0
9 10 197 0
-9 -10 -197 0
1 10 18 0
-1 -10 -18 0
2 10 38 0
-2 -10 -38 0
3 10 58 0
-3 -10 -58 0
4 10 78 0
-4 -10 -78 0
5 10 98 0
-5 -10 -98 0
6 10 118 0
-6 -10 -118 0
7 10 138 0
-7 -10 -138 0
8 10 158 0
-8 -10 -158 0
9 10 178 0
-9 -10 -178 0
10 198 0
-10 -198 0
1 11 19 0
-1 -11 -19 0
2 11 39 0
-2 -11 -39 0
3 11 59 0
-3 -11 -59 0
4 11 79 0
-4 -11 -79 0
5 11 99 0
-5 -11 -99 0
6 11 119 0
-6 -11 -119 0
7 11 139 0
-7 -11 -139 0
8 11 159 0
-8 -11 -159 0
9 11 179 0
-9 -11 -179 0
10 11 199 0
-10 -11 -199 0
1 12 20 0
-1 -12 -20 0
2 12 40 0
-2 -12 -40 0
3 12 60 0
-3 -12 -60 0
4 12 80 0
-4 -12 -80 0
5 12 100 0
-5 -12 -100 0
6 12 120 0
-6 -12 -120 0
7 12 140 0
-7 -12 -140 0
8 12 160 0
-8 -12 -160 0
9 12 180 0
-9 -12 -180 0
10 12 200 0
-10 -12 -200 0
1 13 21 0
-1 -13 -21 0
2 13 41 0
-2 -13 -41 0
3 13 61 0
-3 -13 -61 0
4 13 81 0
-4 -13 -81 0
5 13 101 0
-5 -13 -101 0
6 13 121 0
-6 -13 -121 0
7 13 141 0
-7 -13 -141 0
8 13 161 0
-8 -13 -161 0
9 13 181 0
-9 -13 -181 0
10 13 201 0
-10 -13 -201 0
1 14 22 0
-1 -14 -22 0
2 14 42 0
-2 -14 -42 0
3 14 62 0
-3 -14 -62 0
4 14 82 0
-4 -14 -82 0
5 14 102 0
-5 -14 -102 0
6 14 122 0
-6 -14 -122 0
7 14 142 0
-7 -14 -142 0
8 14 162 0
-8 -14 -162 0
9 14 182 0
-9 -14 -182 0
1 15 23 0
-1 -15 -23 0
2 15 43 0
-2 -15 -43 0
3 15 63 0
-3 -15 -63 0
4 15 83 0
-4 -15 -83 0
5 15 103 0
-5 -15 -103 0
6 15 123 0
-6 -15 -123 0
7 15 143 0
-7 -15 -143 0
8 15 163 0
-8 -15 -163 0
9 15 183 0
-9 -15 -183 0
1 16 24 0
-1 -16 -24 0
2 16 44 0
-2 -16 -44 0
3 16 64 0
-3 -16 -64 0
4 16 84 0
-4 -16 -84 0
5 16 104 0
-5 -16 -104 0
6 16 124 0
-6 -16 -124 0
7 16 144 0
-7 -16 -144 0
8 16 164 0
-8 -16 -164 0
9 16 184 0
-9 -16 -184 0
1 17 25 0
-1 -17 -25 0
2 17 45 0
-2 -17 -45 0
3 17 65 0
-3 -17 -65 0
4 17 85 0
-4 -17 -85 0
5 17 105 0
-5 -17 -105 0
6 17 125 0
-6 -17 -125 0
7 17 145 0
-7 -17 -145 0
8 17 165 0
-8 -17 -165 0
9 17 185 0
-9 -17 -185 0
1 18 26 0
-1 -18 -26 0
2 18 46 0
-2 -18 -46 0
3 18 66 0
-3 -18 -66 0
4 18 86 0
-4 -18 -86 0
5 18 106 0
-5 -18 -106 0
6 18 126 0
-6 -18 -126 0
7 18 146 0
-7 -18 -146 0
8 18 166 0
-8 -18 -166 0
9 18 186 0
-9 -18 -186 0
1 19 27 0
-1 -19 -27 0
2 19 47 0
-2 -19 -47 0
3 19 67 0
-3 -19 -67 0
4 19 87 0
-4 -19 -87 0
5 19 107 0
-5 -19 -107 0
6 19 127 0
-6 -19 -127 0
7 19 147 0
-7 -19 -147 0
8 19 167 0
-8 -19 -167 0
9 19 187 0
-9 -19 -187 0
1 20 28 0
-1 -20 -28 0
2 20 48 0
-2 -20 -48 0
3 20 68 0
-3 -20 -68 0
4 20 88 0
-4 -20 -88 0
5 20 108 0
-5 -20 -108 0
6 20 128 0
-6 -20 -128 0
7 20 148 0
-7 -20 -148 0
8 20 168 0
-8 -20 -168 0
9 20 188 0
-9 -20 -188 0
1 21 29 0
-1 -21 -29 0
2 21 49 0
-2 -21 -49 0
3 21 69 0
-3 -21 -69 0
4 21 89 0
-4 -21 -89 0
5 21 109 0
-5 -21 -109 0
6 21 129 0
-6 -21 -129 0
7 21 149 0
-7 -21 -149 0
8 21 169 0
-8 -21 -169 0
9 21 189 0
-9 -21 -189 0
1 22 30 0
-1 -22 -30 0
2 22 50 0
-2 -22 -50 0
3 22 70 0
-3 -22 -70 0
4 22 90 0
-4 -22 -90 0
5 22 110 0
-5 -22 -110 0
6 22 130 0
-6 -22 -130 0
7 22 150 0
-7 -22 -150 0
8 22 170 0
-8 -22 -170 0
9 22 190 0
-9 -22 -190 0
1 23 31 0
-1 -23 -31 0
2 23 51 0
-2 -23 -51 0
3 23 71 0
-3 -23 -71 0
4 23 91 0
-4 -23 -91 0
5 23 111 0
-5 -23 -111 0
6 23 131 0
-6 -23 -131 0
7 23 151 0
-7 -23 -151 0
8 23 171 0
-8 -23 -171 0
9 23 191 0
-9 -23 -191 0
1 24 32 0
-1 -24 -32 0
2 24 52 0
-2 -24 -52 0
3 24 72 0
-3 -24 -72 0
4 24 92 0
-4 -24 -92 0
5 24 112 0
-5 -24 -112 0
6 24 132 0
-6 -24 -132 0
7 24 152 0
-7 -24 -152 0
8 24 172 0
-8 -24 -172 0
9 24 192 0
-9 -24 -192 0
1 25 33 0
-1 -25 -33 0
2 25 53 0
-2 -25 -53 0
3 25 73 0
-3 -25 -73 0
4 25 93 0
-4 -25 -93 0
5 25 113 0
-5 -25 -113 0
6 25 133 0
-6 -25 -133 0
7 25 153 0
-7 -25 -153 0
8 25 173 0
-8 -25 -173 0
9 25 193 0
-9 -25 -193 0
1 26 34 0
-1 -26 -34 0
2 26 54 0
-2 -26 -54 0
3 26 74 0
-3 -26 -74 0
4 26 94 0
-4 -26 -94 0
5 26 114 0
-5 -26 -114 0
6 26 134 0
-6 -26 -134 0
7 26 154 0
-7 -26 -154 0
8 26 174 0
-8 -26 -174 0
9 26 194 0
-9 -26 -194 0
1 27 35 0
-1 -27 -35 0
2 27 55 0
-2 -27 -55 0
3 27 75 0
-3 -27 -75 0
4 27 95 0
-4 -27 -95 0
5 27 115 0
-5 -27 -115 0
6 27 135 0
-6 -27 -135 0
7 27 155 0
-7 -27 -155 0
8 27 175 0
-8 -27 -175 0
9 27 195 0
-9 -27 -195 0
1 28 36 0
-1 -28 -36 0
2 28 56 0
-2 -28 -56 0
3 28 76 0
-3 -28 -76 0
4 28 96 0
-4 -28 -96 0
5 28 116 0
-5 -28 -116 0
6 28 136 0
-6 -28 -136 0
7 28 156 0
-7 -28 -156 0
8 28 176 0
-8 -28 -176 0
9 28 196 0
-9 -28 -196 0
1 29 37 0
-1 -29 -37 0
2 29 57 0
-2 -29 -57 0
3 29 77 0
-3 -29 -77 0
4 29 97 0
-4 -29 -97 0
5 29 117 0
-5 -29 -117 0
6 29 137 0
-6 -29 -137 0
7 29 157 0
-7 -29 -157 0
8 29 177 0
-8 -29 -177 0
9 29 197 0
-9 -29 -197 0
1 30 38 0
-1 -30 -38 0
2 30 58 0
-2 -30 -58 0
3 30 78 0
-3 -30 -78 0
4 30 98 0
-4 -30 -98 0
5 30 118 0
-5 -30 -118 0
6 30 138 0
-6 -30 -138 0
7 30 158 0
-7 -30 -158 0
8 30 178 0
-8 -30 -178 0
9 30 198 0
-9 -30 -198 0
1 31 39 0
-1 -31 -39 0
2 31 59 0
-2 -31 -59 0
3 31 79 0
-3 -31 -79 0
4 31 99 0
-4 -31 -99 0
5 31 119 0
-5 -31 -119 0
6 31 139 0
-6 -31 -139 0
7 31 159 0
-7 -31 -159 0
8 31 179 0
-8 -31 -179 0
9 31 199 0
-9 -31 -199 0
1 32 40 0
-1 -32 -40 0
2 32 60 0
-2 -32 -60 0
3 32 80 0
-3 -32 -80 0
4 32 100 0
-4 -32 -100 0
5 32 120 0
-5 -32 -120 0
6 32 140 0
-6 -32 -140 0
7 32 160 0
-7 -32 -160 0
8 32 180 0
-8 -32 -180 0
9 32 200 0
-9 -32 -200 0
1 33 41 0
-1 -33 -41 0
2 33 61 0
-2 -33 -61 0
3 33 81 0
-3 -33 -81 0
4 33 101 0
-4 -33 -101 0
5 33 121 0
-5 -33 -121 0
6 33 141 0
-6 -33 -141 0
7 33 161 0
-7 -33 -161 0
8 33 181 0
-8 -33 -181 0
9 33 201 0
-9 -33 -201 0
1 34 42 0
-1 -34 -42 0
2 34 62 0
-2 -34 -62 0
3 34 82 0
-3 -34 -82 0
4 34 102 0
-4 -34 -102 0
5 34 122 0
-5 -34 -122 0
6 34 142 0
-6 -34 -142 0
7 34 162 0
-7 -34 -162 0
8 34 182 0
-8 -34 -182 0
1 35 43 0
-1 -35 -43 0
2 35 63 0
-2 -35 -63 0
3 35 83 0
-3 -35 -83 0
4 35 103 0
-4 -35 -103 0
5 35 123 0
-5 -35 -123 0
6 35 143 0
-6 -35 -143 0
7 35 163 0
-7 -35 -163 0
8 35 183 0
-8 -35 -183 0
1 36 44 0
-1 -36 -44 0
2 36 64 0
-2 -36 -64 0
3 36 84 0
-3 -36 -84 0
4 36 104 0
-4 -36 -104 0
5 36 124 0
-5 -36 -124 0
6 36 144 0
-6 -36 -144 0
7 36 164 0
-7 -36 -164 0
8 36 184 0
-8 -36 -184 0
1 37 45 0
-1 -37 -45 0
2 37 65 0
-2 -37 -65 0
3 37 85 0
-3 -37 -85 0
4 37 105 0
-4 -37 -105 0
5 37 125 0
-5 -37 -125 0
6 37 145 0
-6 -37 -145 0
7 37 165 0
-7 -37 -165 0
8 37 185 0
-8 -37 -185 0
1 38 46 0
-1 -38 -46 0
2 38 66 0
-2 -38 -66 0
3 38 86 0
-3 -38 -86 0
4 38 106 0
-4 -38 -106 0
5 38 126 0
-5 -38 -126 0
6 38 146 0
-6 -38 -146 0
7 38 166 0
-7 -38 -166 0
8 38 186 0
-8 -38 -186 0
1 39 47 0
-1 -39 -47 0
2 39 67 0
-2 -39 -67 0
3 39 87 0
-3 -39 -87 0
4 39 107 0
-4 -39 -107 0
5 39 127 0
-5 -39 -127 0
6 39 147 0
-6 -39 -147 0
7 39 167 0
-7 -39 -167 0
8 39 187 0
-8 -39 -187 0
1 40 48 0
-1 -40 -48 0
2 40 68 0
-2 -40 -68 0
3 40 88 0
-3 -40 -88 0
4 40 108 0
-4 -40 -108 0
5 40 128 0
-5 -40 -128 0
6 40 148 0
-6 -40 -148 0
7 40 168 0
-7 -40 -168 0
8 40 188 0
-8 -40 -188 0
1 41 49 0
-1 -41 -49 0
2 41 69 0
-2 -41 -69 0
3 41 89 0
-3 -41 -89 0
4 41 109 0
-4 -41 -109 0
5 41 129 0
-5 -41 -129 0
6 41 149 0
-6 -41 -149 0
7 41 169 0
-7 -41 -169 0
8 41 189 0
-8 -41 -189 0
1 42 50 0
-1 -42 -50 0
2 42 70 0
-2 -42 -70 0
3 42 90 0
-3 -42 -90 0
4 42 110 0
-4 -42 -110 0
5 42 130 0
-5 -42 -130 0
6 42 150 0
-6 -42 -150 0
7 42 170 0
-7 -42 -170 0
8 42 190 0
-8 -42 -190 0
1 43 51 0
-1 -43 -51 0
2 43 71 0
-2 -43 -71 0
3 43 91 0
-3 -43 -91 0
4 43 111 0
-4 -43 -111 0
5 43 131 0
-5 -43 -131 0
6 43 151 0
-6 -43 -151 0
7 43 171 0
-7 -43 -171 0
8 43 191 0
-8 -43 -191 0
1 44 52 0
-1 -44 -52 0
2 44 72 0
-2 -44 -72 0
3 44 92 0
-3 -44 -92 0
4 44 112 0
-4 -44 -112 0
5 44 132 0
-5 -44 -132 0
6 44 152 0
-6 -44 -152 0
7 44 172 0
-7 -44 -172 0
8 44 192 0
-8 -44 -192 0
1 45 53 0
-1 -45 -53 0
2 45 73 0
-2 -45 -73 0
3 45 93 0
-3 -45 -93 0
4 45 113 0
-4 -45 -113 0
5 45 133 0
-5 -45 -133 0
6 45 153 0
-6 -45 -153 0
7 45 173 0
-7 -45 -173 0
8 45 193 0
-8 -45 -193 0
1 46 54 0
-1 -46 -54 0
2 46 74 0
-2 -46 -74 0
3 46 94 0
-3 -46 -94 0
4 46 114 0
-4 -46 -114 0
5 46 134 0
-5 -46 -134 0
6 46 154 0
-6 -46 -154 0
7 46 174 0
-7 -46 -174 0
8 46 194 0
-8 -46 -194 0
1 47 55 0
-1 -47 -55 0
2 47 75 0
-2 -47 -75 0
3 47 95 0
-3 -47 -95 0
4 47 115 0
-4 -47 -115 0
5 47 135 0
-5 -47 -135 0
6 47 155 0
-6 -47 -155 0
7 47 175 0
-7 -47 -175 0
8 47 195 0
-8 -47 -195 0
1 48 56 0
-1 -48 -56 0
2 48 76 0
-2 -48 -76 0
3 48 96 0
-3 -48 -96 0
4 48 116 0
-4 -48 -116 0
5 48 136 0
-5 -48 -136 0
6 48 156 0
-6 -48 -156 0
7 48 176 0
-7 -48 -176 0
8 48 196 0
-8 -48 -196 0
1 49 57 0
-1 -49 -57 0
2 49 77 0
-2 -49 -77 0
3 49 97 0
-3 -49 -97 0
4 49 117 0
-4 -49 -117 0
5 49 137 0
-5 -49 -137 0
6 49 157 0
-6 -49 -157 0
7 49 177 0
-7 -49 -177 0
8 49 197 0
-8 -49 -197 0
1 50 58 0
-1 -50 -58 0
2 50 78 0
-2 -50 -78 0
3 50 98 0
-3 -50 -98 0
4 50 118 0
-4 -50 -118 0
5 50 138 0
-5 -50 -138 0
6 50 158 0
-6 -50 -158 0
7 50 178 0
-7 -50 -178 0
8 50 198 0
-8 -50 -198 0
1 51 59 0
-1 -51 -59 0
2 51 79 0
-2 -51 -79 0
3 51 99 0
-3 -51 -99 0
4 51 119 0
-4 -51 -119 0
5 51 139 0
-5 -51 -139 0
6 51 159 0
-6 -51 -159 0
7 51 179 0
-7 -51 -179 0
8 51 199 0
-8 -51 -199 0
1 52 60 0
-1 -52 -60 0
2 52 80 0
-2 -52 -80 0
3 52 100 0
-3 -52 -100 0
4 52 120 0
-4 -52 -120 0
5 52 140 0
-5 -52 -140 0
6 52 160 0
-6 -52 -160 0
7 52 180 0
-7 -52 -180 0
8 52 200 0
-8 -52 -200 0
1 53 61 0
-1 -53 -61 0
2 53 81 0
-2 -53 -81 0
3 53 101 0
-3 -53 -101 0
4 53 121 0
-4 -53 -121 0
5 53 141 0
-5 -53 -141 0
6 53 161 0
-6 -53 -161 0
7 53 181 0
-7 -53 -181 0
8 53 201 0
-8 -53 -201 0
1 54 62 0
-1 -54 -62 0
2 54 82 0
-2 -54 -82 0
3 54 102 0
-3 -54 -102 0
4 54 122 0
-4 -54 -122 0
5 54 142 0
-5 -54 -142 0
6 54 162 0
-6 -54 -162 0
7 54 182 0
-7 -54 -182 0
1 55 63 0
-1 -55 -63 0
2 55 83 0
-2 -55 -83 0
3 55 103 0
-3 -55 -103 0
4 55 123 0
-4 -55 -123 0
5 55 143 0
-5 -55 -143 0
6 55 163 0
-6 -55 -163 0
7 55 183 0
-7 -55 -183 0
1 56 64 0
-1 -56 -64 0
2 56 84 0
-2 -56 -84 0
3 56 104 0
-3 -56 -104 0
4 56 124 0
-4 -56 -124 0
5 56 144 0
-5 -56 -144 0
6 56 164 0
-6 -56 -164 0
7 56 184 0
-7 -56 -184 0
1 57 65 0
-1 -57 -65 0
2 57 85 0
-2 -57 -85 0
3 57 105 0
-3 -57 -105 0
4 57 125 0
-4 -57 -125 0
5 57 145 0
-5 -57 -145 0
6 57 165 0
-6 -57 -165 0
7 57 185 0
-7 -57 -185 0
1 58 66 0
-1 -58 -66 0
2 58 86 0
-2 -58 -86 0
3 58 106 0
-3 -58 -106 0
4 58 126 0
-4 -58 -126 0
5 58 146 0
-5 -58 -146 0
6 58 166 0
-6 -58 -166 0
7 58 186 0
-7 -58 -186 0
1 59 67 0
-1 -59 -67 0
2 59 87 0
-2 -59 -87 0
3 59 107 0
-3 -59 -107 0
4 59 127 0
-4 -59 -127 0
5 59 147 0
-5 -59 -147 0
6 59 167 0
-6 -59 -167 0
7 59 187 0
-7 -59 -187 0
1 60 68 0
-1 -60 -68 0
2 60 88 0
-2 -60 -88 0
3 60 108 0
-3 -60 -108 0
4 60 128 0
-4 -60 -128 0
5 60 148 0
-5 -60 -148 0
6 60 168 0
-6 -60 -168 0
7 60 188 0
-7 -60 -188 0
1 61 69 0
-1 -61 -69 0
2 61 89 0
-2 -61 -89 0
3 61 109 0
-3 -61 -109 0
4 61 129 0
-4 -61 -129 0
5 61 149 0
-5 -61 -149 0
6 61 169 0
-6 -61 -169 0
7 61 189 0
-7 -61 -189 0
1 62 70 0
-1 -62 -70 0
2 62 90 0
-2 -62 -90 0
3 62 110 0
-3 -62 -110 0
4 62 130 0
-4 -62 -130 0
5 62 150 0
-5 -62 -150 0
6 62 170 0
-6 -62 -170 0
7 62 190 0
-7 -62 -190 0
1 63 71 0
-1 -63 -71 0
2 63 91 0
-2 -63 -91 0
3 63 111 0
-3 -63 -111 0
4 63 131 0
-4 -63 -131 0
5 63 151 0
-5 -63 -151 0
6 63 171 0
-6 -63 -171 0
7 63 191 0
-7 -63 -191 0
1 64 72 0
-1 -64 -72 0
2 64 92 0
-2 -64 -92 0
3 64 112 0
-3 -64 -112 0
4 64 132 0
-4 -64 -132 0
5 64 152 0
-5 -64 -152 0
6 64 172 0
-6 -64 -172 0
7 64 192 0
-7 -64 -192 0
1 65 73 0
-1 -65 -73 0
2 65 93 0
-2 -65 -93 0
3 65 113 0
-3 -65 -113 0
4 65 133 0
-4 -65 -133 0
5 65 153 0
-5 -65 -153 0
6 65 173 0
-6 -65 -173 0
7 65 193 0
-7 -65 -193 0
1 66 74 0
-1 -66 -74 0
2 66 94 0
-2 -66 -94 0
3 66 114 0
-3 -66 -114 0
4 66 134 0
-4 -66 -134 0
5 66 154 0
-5 -66 -154 0
6 66 174 0
-6 -66 -174 0
7 66 194 0
-7 -66 -194 0
1 67 75 0
-1 -67 -75 0
2 67 95 0
-2 -67 -95 0
3 67 115 0
-3 -67 -115 0
4 67 135 0
-4 -67 -135 0
5 67 155 0
-5 -67 -155 0
6 67 175 0
-6 -67 -175 0
7 67 195 0
-7 -67 -195 0
1 68 76 0
-1 -68 -76 0
2 68 96 0
-2 -68 -96 0
3 68 116 0
-3 -68 -116 0
4 68 136 0
-4 -68 -136 0
5 68 156 0
-5 -68 -156 0
6 68 176 0
-6 -68 -176 0
7 68 196 0
-7 -68 -196 0
1 69 77 0
-1 -69 -77 0
2 69 97 0
-2 -69 -97 0
3 69 117 0
-3 -69 -117 0
4 69 137 0
-4 -69 -137 0
5 69 157 0
-5 -69 -157 0
6 69 177 0
-6 -69 -177 0
7 69 197 0
-7 -69 -197 0
1 70 78 0
-1 -70 -78 0
2 70 98 0
-2 -70 -98 0
3 70 118 0
-3 -70 -118 0
4 70 138 0
-4 -70 -138 0
5 70 158 0
-5 -70 -158 0
6 70 178 0
-6 -70 -178 0
7 70 198 0
-7 -70 -198 0
1 71 79 0
-1 -71 -79 0
2 71 99 0
-2 -71 -99 0
3 71 119 0
-3 -71 -119 0
4 71 139 0
-4 -71 -139 0
5 71 159 0
-5 -71 -159 0
6 71 179 0
-6 -71 -179 0
7 71 199 0
-7 -71 -199 0
1 72 80 0
-1 -72 -80 0
2 72 100 0
-2 -72 -100 0
3 72 120 0
-3 -72 -120 0
4 72 140 0
-4 -72 -140 0
5 72 160 0
-5 -72 -160 0
6 72 180 0
-6 -72 -180 0
7 72 200 0
-7 -72 -200 0
1 73 81 0
-1 -73 -81 0
2 73 101 0
-2 -73 -101 0
3 73 121 0
-3 -73 -121 0
4 73 141 0
-4 -73 -141 0
5 73 161 0
-5 -73 -161 0
6 73 181 0
-6 -73 -181 0
7 73 201 0
-7 -73 -201 0
1 74 82 0
-1 -74 -82 0
2 74 102 0
-2 -74 -102 0
3 74 122 0
-3 -74 -122 0
4 74 142 0
-4 -74 -142 0
5 74 162 0
-5 -74 -162 0
6 74 182 0
-6 -74 -182 0
1 75 83 0
-1 -75 -83 0
2 75 103 0
-2 -75 -103 0
3 75 123 0
-3 -75 -123 0
4 75 143 0
-4 -75 -143 0
5 75 163 0
-5 -75 -163 0
6 75 183 0
-6 -75 -183 0
1 76 84 0
-1 -76 -84 0
2 76 104 0
-2 -76 -104 0
3 76 124 0
-3 -76 -124 0
4 76 144 0
-4 -76 -144 0
5 76 164 0
-5 -76 -164 0
6 76 184 0
-6 -76 -184 0
1 77 85 0
-1 -77 -85 0
2 77 105 0
-2 -77 -105 0
3 77 125 0
-3 -77 -125 0
4 77 145 0
-4 -77 -145 0
5 77 165 0
-5 -77 -165 0
6 77 185 0
-6 -77 -185 0
1 78 86 0
-1 -78 -86 0
2 78 106 0
-2 -78 -106 0
3 78 126 0
-3 -78 -126 0
4 78 146 0
-4 -78 -146 0
5 78 166 0
-5 -78 -166 0
6 78 186 0
-6 -78 -186 0
1 79 87 0
-1 -79 -87 0
2 79 107 0
-2 -79 -107 0
3 79 127 0
-3 -79 -127 0
4 79 147 0
-4 -79 -147 0
5 79 167 0
-5 -79 -167 0
6 79 187 0
-6 -79 -187 0
1 80 88 0
-1 -80 -88 0
2 80 108 0
-2 -80 -108 0
3 80 128 0
-3 -80 -128 0
4 80 148 0
-4 -80 -148 0
5 80 168 0
-5 -80 -168 0
6 80 188 0
-6 -80 -188 0
1 81 89 0
-1 -81 -89 0
2 81 109 0
-2 -81 -109 0
3 81 129 0
-3 -81 -129 0
4 81 149 0
-4 -81 -149 0
5 81 169 0
-5 -81 -169 0
6 81 189 0
-6 -81 -189 0
1 82 90 0
-1 -82 -90 0
2 82 110 0
-2 -82 -110 0
3 82 130 0
-3 -82 -130 0
4 82 150 0
-4 -82 -150 0
5 82 170 0
-5 -82 -170 0
6 82 190 0
-6 -82 -190 0
1 83 91 0
-1 -83 -91 0
2 83 111 0
-2 -83 -111 0
3 83 131 0
-3 -83 -131 0
4 83 151 0
-4 -83 -151 0
5 83 171 0
-5 -83 -171 0
6 83 191 0
-6 -83 -191 0
1 84 92 0
-1 -84 -92 0
2 84 112 0
-2 -84 -112 0
3 84 132 0
-3 -84 -132 0
4 84 152 0
-4 -84 -152 0
5 84 172 0
-5 -84 -172 0
6 84 192 0
-6 -84 -192 0
1 85 93 0
-1 -85 -93 0
2 85 113 0
-2 -85 -113 0
3 85 133 0
-3 -85 -133 0
4 85 153 0
-4 -85 -153 0
5 85 173 0
-5 -85 -173 0
6 85 193 0
-6 -85 -193 0
1 86 94 0
-1 -86 -94 0
2 86 114 0
-2 -86 -114 0
3 86 134 0
-3 -86 -134 0
4 86 154 0
-4 -86 -154 0
5 86 174 0
-5 -86 -174 0
6 86 194 0
-6 -86 -194 0
1 87 95 0
-1 -87 -95 0
2 87 115 0
-2 -87 -115 0
3 87 135 0
-3 -87 -135 0
4 87 155 0
-4 -87 -155 0
5 87 175 0
-5 -87 -175 0
6 87 195 0
-6 -87 -195 0
1 88 96 0
-1 -88 -96 0
2 88 116 0
-2 -88 -116 0
3 88 136 0
-3 -88 -136 0
4 88 156 0
-4 -88 -156 0
5 88 176 0
-5 -88 -176 0
6 88 196 0
-6 -88 -196 0
1 89 97 0
-1 -89 -97 0
2 89 117 0
-2 -89 -117 0
3 89 137 0
-3 -89 -137 0
4 89 157 0
-4 -89 -157 0
5 89 177 0
-5 -89 -177 0
6 89 197 0
-6 -89 -197 0
1 90 98 0
-1 -90 -98 0
2 90 118 0
-2 -90 -118 0
3 90 138 0
-3 -90 -138 0
4 90 158 0
-4 -90 -158 0
5 90 178 0
-5 -90 -178 0
6 90 198 0
-6 -90 -198 0
1 91 99 0
-1 -91 -99 0
2 91 119 0
-2 -91 -119 0
3 91 139 0
-3 -91 -139 0
4 91 159 0
-4 -91 -159 0
5 91 179 0
-5 -91 -179 0
6 91 199 0
-6 -91 -199 0
1 92 100 0
-1 -92 -100 0
2 92 120 0
-2 -92 -120 0
3 92 140 0
-3 -92 -140 0
4 92 160 0
-4 -92 -160 0
5 92 180 0
-5 -92 -180 0
6 92 200 0
-6 -92 -200 0
1 93 101 0
-1 -93 -101 0
2 93 121 0
-2 -93 -121 0
3 93 141 0
-3 -93 -141 0
4 93 161 0
-4 -93 -161 0
5 93 181 0
-5 -93 -181 0
6 93 201 0
-6 -93 -201 0
1 94 102 0
-1 -94 -102 0
2 94 122 0
-2 -94 -122 0
3 94 142 0
-3 -94 -142 0
4 94 162 0
-4 -94 -162 0
5 94 182 0
-5 -94 -182 0
1 95 103 0
-1 -95 -103 0
2 95 123 0
-2 -95 -123 0
3 95 143 0
-3 -95 -143 0
4 95 163 0
-4 -95 -163 0
5 95 183 0
-5 -95 -183 0
1 96 104 0
-1 -96 -104 0
2 96 124 0
-2 -96 -124 0
3 96 144 0
-3 -96 -144 0
4 96 164 0
-4 -96 -164 0
5 96 184 0
-5 -96 -184 0
1 97 105 0
-1 -97 -105 0
2 97 125 0
-2 -97 -125 0
3 97 145 0
-3 -97 -145 0
4 97 165 0
-4 -97 -165 0
5 97 185 0
-5 -97 -185 0
1 98 106 0
-1 -98 -106 0
2 98 126 0
-2 -98 -126 0
3 98 146 0
-3 -98 -146 0
4 98 166 0
-4 -98 -166 0
5 98 186 0
-5 -98 -186 0
1 99 107 0
-1 -99 -107 0
2 99 127 0
-2 -99 -127 0
3 99 147 0
-3 -99 -147 0
4 99 167 0
-4 -99 -167 0
5 99 187 0
-5 -99 -187 0
1 100 108 0
-1 -100 -108 0
2 100 128 0
-2 -100 -128 0
3 100 148 0
-3 -100 -148 0
4 100 168 0
-4 -100 -168 0
5 100 188 0
-5 -100 -188 0
1 101 109 0
-1 -101 -109 0
2 101 129 0
-2 -101 -129 0
3 101 149 0
-3 -101 -149 0
4 101 169 0
-4 -101 -169 0
5 101 189 0
-5 -101 -189 0
1 102 110 0
-1 -102 -110 0
2 102 130 0
-2 -102 -130 0
3 102 150 0
-3 -102 -150 0
4 102 170 0
-4 -102 -170 0
5 102 190 0
-5 -102 -190 0
1 103 111 0
-1 -103 -111 0
2 103 131 0
-2 -103 -131 0
3 103 151 0
-3 -103 -151 0
4 103 171 0
-4 -103 -171 0
5 103 191 0
-5 -103 -191 0
1 104 112 0
-1 -104 -112 0
2 104 132 0
-2 -104 -132 0
3 104 152 0
-3 -104 -152 0
4 104 172 0
-4 -104 -172 0
5 104 192 0
-5 -104 -192 0
1 105 113 0
-1 -105 -113 0
2 105 133 0
-2 -105 -133 0
3 105 153 0
-3 -105 -153 0
4 105 173 0
-4 -105 -173 0
5 105 193 0
-5 -105 -193 0
1 106 114 0
-1 -106 -114 0
2 106 134 0
-2 -106 -134 0
3 106 154 0
-3 -106 -154 0
4 106 174 0
-4 -106 -174 0
5 106 194 0
-5 -106 -194 0
1 107 115 0
-1 -107 -115 0
2 107 135 0
-2 -107 -135 0
3 107 155 0
-3 -107 -155 0
4 107 175 0
-4 -107 -175 0
5 107 195 0
-5 -107 -195 0
1 108 116 0
-1 -108 -116 0
2 108 136 0
-2 -108 -136 0
3 108 156 0
-3 -108 -156 0
4 108 176 0
-4 -108 -176 0
5 108 196 0
-5 -108 -196 0
1 109 117 0
-1 -109 -117 0
2 109 137 0
-2 -109 -137 0
3 109 157 0
-3 -109 -157 0
4 109 177 0
-4 -109 -177 0
5 109 197 0
-5 -109 -197 0
1 110 118 0
-1 -110 -118 0
2 110 138 0
-2 -110 -138 0
3 110 158 0
-3 -110 -158 0
4 110 178 0
-4 -110 -178 0
5 110 198 0
-5 -110 -198 0
1 111 119 0
-1 -111 -119 0
2 111 139 0
-2 -111 -139 0
3 111 159 0
-3 -111 -159 0
4 111 179 0
-4 -111 -179 0
5 111 199 0
-5 -111 -199 0
1 112 120 0
-1 -112 -120 0
2 112 140 0
-2 -112 -140 0
3 112 160 0
-3 -112 -160 0
4 112 180 0
-4 -112 -180 0
5 112 200 0
-5 -112 -200 0
1 113 121 0
-1 -113 -121 0
2 113 141 0
-2 -113 -141 0
3 113 161 0
-3 -113 -161 0
4 113 181 0
-4 -113 -181 0
5 113 201 0
-5 -113 -201 0
1 114 122 0
-1 -114 -122 0
2 114 142 0
-2 -114 -142 0
3 114 162 0
-3 -114 -162 0
4 114 182 0
-4 -114 -182 0
1 115 123 0
-1 -115 -123 0
2 115 143 0
-2 -115 -143 0
3 115 163 0
-3 -115 -163 0
4 115 183 0
-4 -115 -183 0
1 116 124 0
-1 -116 -124 0
2 116 144 0
-2 -116 -144 0
3 116 164 0
-3 -116 -164 0
4 116 184 0
-4 -116 -184 0
1 117 125 0
-1 -117 -125 0
2 117 145 0
-2 -117 -145 0
3 117 165 0
-3 -117 -165 0
4 117 185 0
-4 -117 -185 0
1 118 126 0
-1 -118 -126 0
2 118 146 0
-2 -118 -146 0
3 118 166 0
-3 -118 -166 0
4 118 186 0
-4 -118 -186 0
1 119 127 0
-1 -119 -127 0
2 119 147 0
-2 -119 -147 0
3 119 167 0
-3 -119 -167 0
4 119 187 0
-4 -119 -187 0
1 120 128 0
-1 -120 -128 0
2 120 148 0
-2 -120 -148 0
3 120 168 0
-3 -120 -168 0
4 120 188 0
-4 -120 -188 0
1 121 129 0
-1 -121 -129 0
2 121 149 0
-2 -121 -149 0
3 121 169 0
-3 -121 -169 0
4 121 189 0
-4 -121 -189 0
1 122 130 0
-1 -122 -130 0
2 122 150 0
-2 -122 -150 0
3 122 170 0
-3 -122 -170 0
4 122 190 0
-4 -122 -190 0
1 123 131 0
-1 -123 -131 0
2 123 151 0
-2 -123 -151 0
3 123 171 0
-3 -123 -171 0
4 123 191 0
-4 -123 -191 0
1 124 132 0
-1 -124 -132 0
2 124 152 0
-2 -124 -152 0
3 124 172 0
-3 -124 -172 0
4 124 192 0
-4 -124 -192 0
1 125 133 0
-1 -125 -133 0
2 125 153 0
-2 -125 -153 0
3 125 173 0
-3 -125 -173 0
4 125 193 0
-4 -125 -193 0
1 126 134 0
-1 -126 -134 0
2 126 154 0
-2 -126 -154 0
3 126 174 0
-3 -126 -174 0
4 126 194 0
-4 -126 -194 0
1 127 135 0
-1 -127 -135 0
2 127 155 0
-2 -127 -155 0
3 127 175 0
-3 -127 -175 0
4 127 195 0
-4 -127 -195 0
1 128 136 0
-1 -128 -136 0
2 128 156 0
-2 -128 -156 0
3 128 176 0
-3 -128 -176 0
4 128 196 0
-4 -128 -196 0
1 129 137 0
-1 -129 -137 0
2 129 157 0
-2 -129 -157 0
3 129 177 0
-3 -129 -177 0
4 129 197 0
-4 -129 -197 0
1 130 138 0
-1 -130 -138 0
2 130 158 0
-2 -130 -158 0
3 130 178 0
-3 -130 -178 0
4 130 198 0
-4 -130 -198 0
1 131 139 0
-1 -131 -139 0
2 131 159 0
-2 -131 -159 0
3 131 179 0
-3 -131 -179 0
4 131 199 0
-4 -131 -199 0
1 132 140 0
-1 -132 -140 0
2 132 160 0
-2 -132 -160 0
3 132 180 0
-3 -132 -180 0
4 132 200 0
-4 -132 -200 0
1 133 141 0
-1 -133 -141 0
2 133 161 0
-2 -133 -161 0
3 133 181 0
-3 -133 -181 0
4 133 201 0
-4 -133 -201 0
1 134 142 0
-1 -134 -142 0
2 134 162 0
-2 -134 -162 0
3 134 182 0
-3 -134 -182 0
1 135 143 0
-1 -135 -143 0
2 135 163 0
-2 -135 -163 0
3 135 183 0
-3 -135 -183 0
1 136 144 0
-1 -136 -144 0
2 136 164 0
-2 -136 -164 0
3 136 184 0
-3 -136 -184 0
1 137 145 0
-1 -137 -145 0
2 137 165 0
-2 -137 -165 0
3 137 185 0
-3 -137 -185 0
1 138 146 0
-1 -138 -146 0
2 138 166 0
-2 -138 -166 0
3 138 186 0
-3 -138 -186 0
1 139 147 0
-1 -139 -147 0
2 139 167 0
-2 -139 -167 0
3 139 187 0
-3 -139 -187 0
1 140 148 0
-1 -140 -148 0
2 140 168 0
-2 -140 -168 0
3 140 188 0
-3 -140 -188 0
1 141 149 0
-1 -141 -149 0
2 141 169 0
-2 -141 -169 0
3 141 189 0
-3 -141 -189 0
1 142 150 0
-1 -142 -150 0
2 142 170 0
-2 -142 -170 0
3 142 190 0
-3 -142 -190 0
1 143 151 0
-1 -143 -151 0
2 143 171 0
-2 -143 -171 0
3 143 191 0
-3 -143 -191 0
1 144 152 0
-1 -144 -152 0
2 144 172 0
-2 -144 -172 0
3 144 192 0
-3 -144 -192 0
1 145 153 0
-1 -145 -153 0
2 145 173 0
-2 -145 -173 0
3 145 193 0
-3 -145 -193 0
1 146 154 0
-1 -146 -154 0
2 146 174 0
-2 -146 -174 0
3 146 194 0
-3 -146 -194 0
1 147 155 0
-1 -147 -155 0
2 147 175 0
-2 -147 -175 0
3 147 195 0
-3 -147 -195 0
1 148 156 0
-1 -148 -156 0
2 148 176 0
-2 -148 -176 0
3 148 196 0
-3 -148 -196 0
1 149 157 0
-1 -149 -157 0
2 149 177 0
-2 -149 -177 0
3 149 197 0
-3 -149 -197 0
1 150 158 0
-1 -150 -158 0
2 150 178 0
-2 -150 -178 0
3 150 198 0
-3 -150 -198 0
1 151 159 0
-1 -151 -159 0
2 151 179 0
-2 -151 -179 0
3 151 199 0
-3 -151 -199 0
1 152 160 0
-1 -152 -160 0
2 152 180 0
-2 -152 -180 0
3 152 200 0
-3 -152 -200 0
1 153 161 0
-1 -153 -161 0
2 153 181 0
-2 -153 -181 0
3 153 201 0
-3 -153 -201 0
1 154 162 0
-1 -154 -162 0
2 154 182 0
-2 -154 -182 0
1 155 163 0
-1 -155 -163 0
2 155 183 0
-2 -155 -183 0
1 156 164 0
-1 -156 -164 0
2 156 184 0
-2 -156 -184 0
1 157 165 0
-1 -157 -165 0
2 157 185 0
-2 -157 -185 0
1 158 166 0
-1 -158 -166 0
2 158 186 0
-2 -158 -186 0
1 159 167 0
-1 -159 -167 0
2 159 187 0
-2 -159 -187 0
1 160 168 0
-1 -160 -168 0
2 160 188 0
-2 -160 -188 0
1 161 169 0
-1 -161 -169 0
2 161 189 0
-2 -161 -189 0
1 162 170 0
-1 -162 -170 0
2 162 190 0
-2 -162 -190 0
1 163 171 0
-1 -163 -171 0
2 163 191 0
-2 -163 -191 0
1 164 172 0
-1 -164 -172 0
2 164 192 0
-2 -164 -192 0
1 165 173 0
-1 -165 -173 0
2 165 193 0
-2 -165 -193 0
1 166 174 0
-1 -166 -174 0
2 166 194 0
-2 -166 -194 0
1 167 175 0
-1 -167 -175 0
2 167 195 0
-2 -167 -195 0
1 168 176 0
-1 -168 -176 0
2 168 196 0
-2 -168 -196 0
1 169 177 0
-1 -169 -177 0
2 169 197 0
-2 -169 -197 0
1 170 178 0
-1 -170 -178 0
2 170 198 0
-2 -170 -198 0
1 171 179 0
-1 -171 -179 0
2 171 199 0
-2 -171 -199 0
1 172 180 0
-1 -172 -180 0
2 172 200 0
-2 -172 -200 0
1 173 181 0
-1 -173 -181 0
2 173 201 0
-2 -173 -201 0
1 174 182 0
-1 -174 -182 0
1 175 183 0
-1 -175 -183 0
1 176 184 0
-1 -176 -184 0
1 177 185 0
-1 -177 -185 0
1 178 186 0
-1 -178 -186 0
1 179 187 0
-1 -179 -187 0
1 180 188 0
-1 -180 -188 0
1 181 189 0
-1 -181 -189 0
1 182 190 0
-1 -182 -190 0
1 183 191 0
-1 -183 -191 0
1 184 192 0
-1 -184 -192 0
1 185 193 0
-1 -185 -193 0
1 186 194 0
-1 -186 -194 0
1 187 195 0
-1 -187 -195 0
1 188 196 0
-1 -188 -196 0
1 189 197 0
-1 -189 -197 0
1 190 198 0
-1 -190 -198 0
1 191 199 0
-1 -191 -199 0
1 192 200 0
-1 -192 -200 0
1 193 201 0
-1 -193 -201 0
