certificates/rado_a20_c12_N201.drat
1 -197 10 0
-1 -201 0
-201 0
193 0
-177 197 0
177 0
-9 0
197 0
1 0
33 0
-189 0
-185 0
-169 0
-41 0
-25 0
21 0
17 0
7 0
8 0
-29 0
-149 0
-13 0
-129 0
-15 0
-135 0
-145 0
-161 0
-49 0
-65 0
-69 0
-155 0
-16 0
-136 0
-156 0
-165 0
-181 0
-45 0
6 0
2 0
0
